MARKOV
231
 2 2 2 2 2 2 2 2 2 2 2 2 2 2 2 2 2 2 2 2 2 2 2 2 2 2 2 2 2 2 2 2 2 2 2 2 2 2 2 2 2 2 2 2 2 2 2 2 2 2 2 2 2 2 2 2 2 2 2 2 2 2 2 2 2 2 2 2 2 2 2 2 2 2 2 2 2 2 2 2 2 2 2 2 2 2 2 2 2 2 2 2 2 2 2 2 2 2 2 2 2 2 2 2 2 2 2 2 2 2 2 2 2 2 2 2 2 2 2 2 2 2 2 2 2 2 2 2 2 2 2 2 2 2 2 2 2 2 2 2 2 2 2 2 2 2 2 2 2 2 2 2 2 2 2 2 2 2 2 2 2 2 2 2 2 2 2 2 2 2 2 2 2 2 2 2 2 2 2 2 2 2 2 2 2 2 2 2 2 2 2 2 2 2 2 2 2 2 2 2 2 2 2 2 2 2 2 2 2 2 2 2 2 2 2 2 2 2 2 2 2 2 2 2 2 2 2 2 2 2 2
851
1	0 
1	1 
1	2 
1	3 
1	4 
1	5 
1	6 
1	7 
1	8 
1	9 
1	10 
1	11 
1	12 
1	13 
1	14 
1	15 
1	16 
1	17 
1	18 
1	19 
1	20 
1	21 
1	22 
1	23 
1	24 
1	25 
1	26 
1	27 
1	28 
1	29 
1	30 
1	31 
1	32 
1	33 
1	34 
1	35 
1	36 
1	37 
1	38 
1	39 
1	40 
1	41 
1	42 
1	43 
1	44 
1	45 
1	46 
1	47 
1	48 
1	49 
1	50 
1	51 
1	52 
1	53 
1	54 
1	55 
1	56 
1	57 
1	58 
1	59 
1	60 
1	61 
1	62 
1	63 
1	64 
1	65 
1	66 
1	67 
1	68 
1	69 
1	70 
1	71 
1	72 
1	73 
1	74 
1	75 
1	76 
1	77 
1	78 
1	79 
1	80 
1	81 
1	82 
1	83 
1	84 
1	85 
1	86 
1	87 
1	88 
1	89 
1	90 
1	91 
1	92 
1	93 
1	94 
1	95 
1	96 
1	97 
1	98 
1	99 
1	100 
1	101 
1	102 
1	103 
1	104 
1	105 
1	106 
1	107 
1	108 
1	109 
1	110 
1	111 
1	112 
1	113 
1	114 
1	115 
1	116 
1	117 
1	118 
1	119 
1	120 
1	121 
1	122 
1	123 
1	124 
1	125 
1	126 
1	127 
1	128 
1	129 
1	130 
1	131 
1	132 
1	133 
1	134 
1	135 
1	136 
1	137 
1	138 
1	139 
1	140 
1	141 
1	142 
1	143 
1	144 
1	145 
1	146 
1	147 
1	148 
1	149 
1	150 
1	151 
1	152 
1	153 
1	154 
1	155 
1	156 
1	157 
1	158 
1	159 
1	160 
1	161 
1	162 
1	163 
1	164 
1	165 
1	166 
1	167 
1	168 
1	169 
1	170 
1	171 
1	172 
1	173 
1	174 
1	175 
1	176 
1	177 
1	178 
1	179 
1	180 
1	181 
1	182 
1	183 
1	184 
1	185 
1	186 
1	187 
1	188 
1	189 
1	190 
1	191 
1	192 
1	193 
1	194 
1	195 
1	196 
1	197 
1	198 
1	199 
1	200 
1	201 
1	202 
1	203 
1	204 
1	205 
1	206 
1	207 
1	208 
1	209 
1	210 
1	211 
1	212 
1	213 
1	214 
1	215 
1	216 
1	217 
1	218 
1	219 
1	220 
1	221 
1	222 
1	223 
1	224 
1	225 
1	226 
1	227 
1	228 
1	229 
1	230 
2	1 130 
2	2 68 
2	2 89 
2	2 148 
2	3 5 
2	3 7 
2	3 70 
2	3 71 
2	3 180 
2	3 213 
2	3 214 
2	4 5 
2	4 6 
2	4 7 
2	4 8 
2	4 10 
2	4 182 
2	5 6 
2	5 7 
2	5 69 
2	5 70 
2	5 72 
2	6 8 
2	6 69 
2	7 180 
2	7 182 
2	8 10 
2	8 11 
2	9 12 
2	9 46 
2	9 153 
2	9 154 
2	9 179 
2	10 11 
2	10 12 
2	10 182 
2	11 12 
2	11 154 
2	11 155 
2	12 154 
2	12 179 
2	12 182 
2	13 14 
2	13 15 
2	13 183 
2	13 184 
2	14 15 
2	14 19 
2	14 20 
2	14 183 
2	15 20 
2	15 164 
2	15 165 
2	16 17 
2	16 18 
2	16 19 
2	16 127 
2	16 136 
2	16 141 
2	17 19 
2	17 20 
2	17 139 
2	17 141 
2	18 19 
2	18 21 
2	18 26 
2	18 126 
2	18 127 
2	18 185 
2	19 20 
2	19 183 
2	19 185 
2	20 138 
2	20 139 
2	20 163 
2	20 165 
2	21 24 
2	21 26 
2	21 126 
2	21 207 
2	22 23 
2	22 25 
2	22 33 
2	22 36 
2	22 57 
2	22 59 
2	22 208 
2	23 25 
2	23 27 
2	23 33 
2	24 25 
2	24 26 
2	24 31 
2	24 207 
2	24 210 
2	25 27 
2	25 31 
2	25 208 
2	25 210 
2	26 30 
2	26 31 
2	26 184 
2	26 185 
2	27 29 
2	27 31 
2	27 33 
2	27 34 
2	28 29 
2	28 30 
2	28 31 
2	29 34 
2	30 31 
2	30 184 
2	32 35 
2	32 36 
2	32 187 
2	32 189 
2	33 34 
2	33 35 
2	33 36 
2	34 35 
2	35 36 
2	36 55 
2	36 57 
2	36 187 
2	37 38 
2	37 39 
2	37 42 
2	37 43 
2	37 204 
2	37 206 
2	38 39 
2	38 106 
2	38 198 
2	38 200 
2	38 206 
2	39 40 
2	39 41 
2	39 42 
2	39 197 
2	39 200 
2	40 41 
2	40 197 
2	41 42 
2	41 44 
2	42 43 
2	42 44 
2	42 130 
2	43 81 
2	43 113 
2	43 204 
2	44 130 
2	45 46 
2	45 47 
2	45 179 
2	45 181 
2	45 228 
2	45 230 
2	46 47 
2	46 48 
2	46 49 
2	46 153 
2	46 157 
2	46 179 
2	47 48 
2	47 228 
2	47 229 
2	48 49 
2	48 51 
2	48 229 
2	49 51 
2	49 52 
2	49 157 
2	49 158 
2	50 51 
2	50 52 
2	50 203 
2	51 52 
2	51 203 
2	51 229 
2	52 156 
2	52 158 
2	53 54 
2	53 55 
2	53 56 
2	53 186 
2	53 187 
2	54 56 
2	54 186 
2	55 56 
2	55 57 
2	55 63 
2	55 187 
2	56 58 
2	56 63 
2	57 59 
2	57 62 
2	57 63 
2	58 60 
2	58 61 
2	58 63 
2	59 62 
2	59 208 
2	59 211 
2	60 61 
2	60 62 
2	60 63 
2	60 99 
2	60 100 
2	61 99 
2	61 101 
2	62 63 
2	62 100 
2	62 211 
2	64 65 
2	64 66 
2	64 92 
2	64 108 
2	64 109 
2	64 110 
2	64 116 
2	64 120 
2	65 66 
2	65 116 
2	65 121 
2	65 171 
2	65 174 
2	66 110 
2	66 113 
2	66 171 
2	66 172 
2	66 173 
2	66 205 
2	67 68 
2	67 170 
2	67 174 
2	68 119 
2	68 148 
2	69 72 
2	69 77 
2	70 71 
2	70 72 
2	70 78 
2	70 80 
2	71 78 
2	71 214 
2	71 216 
2	72 77 
2	72 80 
2	73 76 
2	73 78 
2	73 80 
2	73 175 
2	73 176 
2	73 178 
2	73 192 
2	74 75 
2	74 76 
2	74 191 
2	74 194 
2	75 76 
2	75 79 
2	76 79 
2	76 80 
2	76 191 
2	76 192 
2	77 79 
2	77 80 
2	78 80 
2	78 178 
2	78 216 
2	79 80 
2	81 82 
2	81 112 
2	81 113 
2	81 130 
2	82 130 
2	83 84 
2	83 91 
2	83 93 
2	83 122 
2	84 91 
2	84 122 
2	84 143 
2	84 146 
2	84 169 
2	85 87 
2	85 88 
2	85 89 
2	85 90 
2	85 147 
2	85 148 
2	86 87 
2	86 88 
2	86 225 
2	86 227 
2	87 88 
2	87 147 
2	87 151 
2	87 162 
2	87 225 
2	88 90 
2	89 90 
2	89 148 
2	91 93 
2	91 135 
2	91 137 
2	91 146 
2	92 93 
2	92 107 
2	92 108 
2	92 118 
2	92 120 
2	93 107 
2	93 118 
2	93 122 
2	93 137 
2	94 96 
2	94 97 
2	94 122 
2	94 175 
2	94 176 
2	95 96 
2	95 97 
2	95 106 
2	95 107 
2	95 111 
2	95 195 
2	96 97 
2	96 107 
2	96 122 
2	97 176 
2	97 195 
2	98 99 
2	98 101 
2	98 102 
2	98 201 
2	98 202 
2	99 100 
2	99 101 
2	99 102 
2	100 102 
2	100 104 
2	101 202 
2	102 103 
2	102 104 
2	102 114 
2	102 201 
2	103 104 
2	103 105 
2	103 114 
2	103 115 
2	104 105 
2	104 211 
2	105 115 
2	105 132 
2	105 209 
2	105 211 
2	106 109 
2	106 111 
2	106 195 
2	106 198 
2	106 206 
2	107 108 
2	107 111 
2	107 122 
2	108 109 
2	108 111 
2	109 110 
2	109 111 
2	109 206 
2	110 205 
2	110 206 
2	112 113 
2	112 172 
2	113 172 
2	113 204 
2	113 205 
2	114 115 
2	114 201 
2	114 228 
2	114 229 
2	115 132 
2	115 215 
2	115 224 
2	115 228 
2	115 230 
2	116 117 
2	116 120 
2	116 121 
2	117 118 
2	117 120 
2	117 121 
2	117 217 
2	118 120 
2	118 137 
2	118 142 
2	118 217 
2	118 222 
2	119 121 
2	119 148 
2	119 150 
2	119 174 
2	121 149 
2	121 150 
2	121 174 
2	121 217 
2	122 124 
2	122 175 
2	123 124 
2	123 168 
2	123 177 
2	123 213 
2	123 214 
2	123 215 
2	123 223 
2	123 224 
2	124 167 
2	124 168 
2	124 169 
2	124 175 
2	124 177 
2	124 178 
2	125 126 
2	125 127 
2	125 128 
2	125 129 
2	125 136 
2	125 144 
2	125 145 
2	126 127 
2	126 129 
2	126 207 
2	127 136 
2	128 129 
2	128 131 
2	128 144 
2	128 212 
2	129 207 
2	129 212 
2	131 132 
2	131 144 
2	131 212 
2	131 223 
2	131 224 
2	132 209 
2	132 212 
2	132 224 
2	133 134 
2	133 135 
2	133 136 
2	133 139 
2	133 141 
2	134 135 
2	134 136 
2	134 143 
2	134 146 
2	135 137 
2	135 139 
2	135 140 
2	135 142 
2	135 146 
2	136 141 
2	136 143 
2	136 145 
2	137 142 
2	138 139 
2	138 140 
2	138 163 
2	138 221 
2	139 140 
2	139 141 
2	140 142 
2	140 221 
2	140 222 
2	142 222 
2	143 145 
2	143 146 
2	143 167 
2	143 169 
2	144 145 
2	144 223 
2	145 167 
2	145 168 
2	147 148 
2	147 150 
2	147 151 
2	148 150 
2	149 150 
2	149 151 
2	149 217 
2	149 218 
2	149 219 
2	150 151 
2	151 218 
2	152 153 
2	152 154 
2	152 155 
2	152 157 
2	152 159 
2	153 154 
2	153 157 
2	154 155 
2	156 158 
2	156 160 
2	157 158 
2	157 159 
2	158 159 
2	158 160 
2	159 160 
2	161 162 
2	161 163 
2	161 165 
2	161 166 
2	161 220 
2	161 221 
2	162 166 
2	162 218 
2	162 220 
2	162 225 
2	162 226 
2	163 165 
2	163 221 
2	164 165 
2	164 166 
2	165 166 
2	166 226 
2	167 168 
2	167 169 
2	168 223 
2	170 171 
2	170 173 
2	170 174 
2	171 173 
2	171 174 
2	172 173 
2	175 176 
2	175 178 
2	176 192 
2	176 195 
2	177 178 
2	177 214 
2	177 216 
2	178 216 
2	179 181 
2	179 182 
2	180 181 
2	180 182 
2	180 213 
2	180 215 
2	181 182 
2	181 215 
2	181 230 
2	183 184 
2	183 185 
2	184 185 
2	186 187 
2	186 188 
2	186 189 
2	187 189 
2	188 189 
2	190 191 
2	190 193 
2	190 194 
2	190 196 
2	190 199 
2	191 192 
2	191 193 
2	191 194 
2	192 193 
2	192 195 
2	193 195 
2	193 196 
2	195 196 
2	195 198 
2	196 198 
2	196 199 
2	196 200 
2	197 199 
2	197 200 
2	198 200 
2	199 200 
2	201 202 
2	201 203 
2	201 229 
2	202 203 
2	203 229 
2	204 205 
2	204 206 
2	205 206 
2	207 210 
2	207 212 
2	208 209 
2	208 210 
2	208 211 
2	209 210 
2	209 211 
2	209 212 
2	210 212 
2	213 214 
2	213 215 
2	214 216 
2	215 224 
2	215 230 
2	217 219 
2	217 222 
2	218 219 
2	218 220 
2	219 220 
2	219 222 
2	220 221 
2	220 222 
2	221 222 
2	223 224 
2	225 226 
2	225 227 
2	226 227 
2	228 229 
2	228 230 
0	

2
 0.252912 1
2
 1 1.22393e-07
2
 1 0.824926
2
 1 0.935195
2
 1 0.258403
2
 1 0.459026
2
 1 0.187884
2
 1 0.706219
2
 1 0.344236
2
 1 0.279916
2
 1 0.314231
2
 1 0.323391
2
 1 0.371892
2
 1 0.110258
2
 1 0.191579
2
 1 0.143068
2
 1 0.45419
2
 1 0.336955
2
 1 0.42431
2
 1 0.168736
2
 1 0.138399
2
 1 0.490068
2
 1 0.221104
2
 1 0.158594
2
 1 0.244282
2
 1 0.259338
2
 1 0.142674
2
 1 0.140768
2
 1 0.120787
2
 1 0.0961029
2
 1 0.0916496
2
 1 0.24298
2
 1 0.050304
2
 1 0.118676
2
 1 0.0774155
2
 1 0.125494
2
 1 0.148219
2
 1 0.206016
2
 1 0.178925
2
 1 0.195411
2
 1 0.133916
2
 1 0.16348
2
 1 0.0956137
2
 1 0.26113
2
 1 0.221502
2
 1 0.859898
2
 1 0.31262
2
 1 0.354349
2
 1 0.28986
2
 1 0.250919
2
 1 0.318335
2
 1 0.338053
2
 1 0.223636
2
 1 0.12098
2
 1 0.0635384
2
 1 0.12935
2
 1 0.178012
2
 1 0.256388
2
 1 0.153996
2
 1 0.284118
2
 1 0.145284
2
 1 0.232176
2
 1 0.110763
2
 1 0.213092
2
 1 0.749319
2
 1 0.473662
2
 1 0.333012
2
 0.844115 1
2
 0.910647 1
2
 1 0.258213
2
 1 0.653
2
 1 0.36801
2
 1 0.403388
2
 1 0.606208
2
 1 0.287399
2
 1 0.286569
2
 1 0.337346
2
 1 0.274485
2
 1 0.589626
2
 1 0.199188
2
 1 0.347143
2
 0.513349 1
2
 0.730517 1
2
 0.148852 1
2
 0.0594986 1
2
 1 0.126696
2
 1 0.0896982
2
 1 0.0853392
2
 1 0.0695548
2
 1 0.0678678
2
 1 0.110389
2
 0.114931 1
2
 0.0905734 1
2
 0.180447 1
2
 1 0.704937
2
 1 0.365972
2
 1 0.533282
2
 1 0.342387
2
 1 0.292314
2
 1 0.337105
2
 1 0.290187
2
 1 0.150793
2
 1 0.304035
2
 1 0.210498
2
 1 0.264377
2
 1 0.366641
2
 0.458825 1
2
 0.125093 1
2
 0.709669 1
2
 1 0.63499
2
 1 0.41473
2
 1 0.638347
2
 1 0.729052
2
 1 0.477577
2
 0.811129 1
2
 0.174608 1
2
 1 0.382824
2
 1 0.519718
2
 1 0.803303
2
 0.937363 1
2
 1 0.845311
2
 1 0.485824
2
 0.0767579 1
2
 0.149506 1
2
 0.269812 1
2
 0.780551 1
2
 1 0.39502
2
 1 0.213271
2
 0.591632 1
2
 1 0.305226
2
 0.104086 1
2
 0.0876187 1
2
 0.19931 1
2
 1 0.181278
2
 0.411063 1
2
 0.534496 1
2
 1 0.855512
2
 0.139572 1
2
 1 0.564685
2
 1 0.281114
2
 1 0.288182
2
 1 0.546733
2
 1 0.381684
2
 0.0860336 1
2
 0.0596345 1
2
 0.112383 1
2
 0.204734 1
2
 1 0.159372
2
 1 0.149791
2
 1 0.145553
2
 1 0.124407
2
 1 0.0724189
2
 1 0.195169
2
 1 0.205575
2
 1 0.198508
2
 1 0.243146
2
 1 0.12572
2
 1 0.392861
2
 1 0.146689
2
 1 0.221529
2
 1 0.172423
2
 1 0.173544
2
 1 0.0900618
2
 1 0.132629
2
 1 0.0843822
2
 1 0.07478
2
 1 0.136633
2
 0.096894 1
2
 0.234483 1
2
 0.0380763 1
2
 1 0.198381
2
 1 0.482827
2
 0.478288 1
2
 1 0.581044
2
 1 0.410266
2
 1 0.845407
2
 0.769568 1
2
 1 0.532359
2
 1 0.786178
2
 1 0.482421
2
 1 0.722633
2
 1 0.663797
2
 1 0.27788
2
 1 0.189333
2
 1 0.10995
2
 1 0.147845
2
 1 0.0784574
2
 1 0.192928
2
 1 0.0839045
2
 1 0.109661
2
 1 0.223553
2
 1 0.295059
2
 1 0.581416
2
 1 0.717878
2
 1 0.250659
2
 1 0.378557
2
 1 0.628584
2
 1 0.237866
2
 1 0.557186
2
 1 0.246244
2
 1 0.304782
2
 0.334996 1
2
 1 0.586883
2
 0.338608 1
2
 1 0.690191
2
 0.998921 1
2
 0.091121 1
2
 1 0.240226
2
 1 0.508499
2
 0.668145 1
2
 1 0.252588
2
 1 0.107584
2
 0.712697 1
2
 0.71544 1
2
 1 0.647831
2
 1 0.745353
2
 0.652386 1
2
 1 0.125378
2
 1 0.109806
2
 1 0.304019
2
 1 0.121402
2
 1 0.172069
2
 1 0.154294
2
 0.216184 1
2
 0.158737 1
2
 1 0.092806
2
 1 0.0943278
2
 1 0.12472
2
 0.721085 1
2
 0.93743 1
2
 0.774837 1
4
 0.954012 0.300181 0.300181 1
4
 1 0.349343 0.349343 0.969067
4
 1 0.35422 0.35422 0.958622
4
 1 0.349854 0.349854 0.964886
4
 0.949798 0.261811 0.261811 1
4
 0.951934 0.262315 0.262315 1
4
 0.952736 0.265476 0.265476 1
4
 0.957025 0.26873 0.26873 1
4
 0.955522 0.263931 0.263931 1
4
 0.960202 0.26759 0.26759 1
4
 0.959608 0.268902 0.268902 1
4
 0.941779 0.255301 0.255301 1
4
 0.93556 0.250702 0.250702 1
4
 0.943897 0.255792 0.255792 1
4
 0.934825 0.24866 0.24866 1
4
 0.93914 0.251104 0.251104 1
4
 0.943633 0.253925 0.253925 1
4
 0.937874 0.253336 0.253336 1
4
 0.946232 0.25848 0.25848 1
4
 0.938822 0.255465 0.255465 1
4
 0.947028 0.261593 0.261593 1
4
 0.943049 0.258596 0.258596 1
4
 0.930949 0.246747 0.246747 1
4
 0.932622 0.250863 0.250863 1
4
 0.951935 0.260572 0.260572 1
4
 0.948094 0.257087 0.257087 1
4
 0.934511 0.247142 0.247142 1
4
 0.92933 0.242811 0.242811 1
4
 0.938983 0.246197 0.246197 1
4
 0.942681 0.246 0.246 1
4
 0.93814 0.243153 0.243153 1
4
 0.93614 0.242912 0.242912 1
4
 0.944217 0.248923 0.248923 1
4
 0.933619 0.245197 0.245197 1
4
 0.938297 0.247999 0.247999 1
4
 0.943315 0.252375 0.252375 1
4
 0.933096 0.243653 0.243653 1
4
 0.930271 0.240402 0.240402 1
4
 0.926986 0.238578 0.238578 1
4
 0.934932 0.24315 0.24315 1
4
 0.942998 0.249167 0.249167 1
4
 0.942786 0.250786 0.250786 1
4
 1 0.321811 0.321811 0.958077
4
 1 0.325298 0.325298 0.954909
4
 1 0.319582 0.319582 0.958992
4
 1 0.319469 0.319469 0.956625
4
 1 0.323985 0.323985 0.958508
4
 1 0.318187 0.318187 0.965964
4
 1 0.32196 0.32196 0.96396
4
 1 0.318293 0.318293 0.962606
4
 1 0.325449 0.325449 0.960772
4
 1 0.330526 0.330526 0.952821
4
 1 0.329326 0.329326 0.956358
4
 1 0.313472 0.313472 0.977751
4
 1 0.308806 0.308806 0.980665
4
 1 0.312741 0.312741 0.97605
4
 1 0.306289 0.306289 0.987406
4
 1 0.306879 0.306879 0.989182
4
 1 0.310465 0.310465 0.983091
4
 1 0.316616 0.316616 0.971949
4
 1 0.320371 0.320371 0.969932
4
 1 0.317111 0.317111 0.976874
4
 1 0.314313 0.314313 0.97896
4
 1 0.311904 0.311904 0.974845
4
 1 0.305213 0.305213 0.980443
4
 1 0.307328 0.307328 0.976378
4
 1 0.304872 0.304872 0.984195
4
 1 0.30547 0.30547 0.986186
4
 1 0.309461 0.309461 0.975228
4
 1 0.319624 0.319624 0.968245
4
 1 0.315983 0.315983 0.966886
4
 1 0.313404 0.313404 0.970639
4
 1 0.323317 0.323317 0.969824
4
 1 0.320123 0.320123 0.973151
4
 1 0.32608 0.32608 0.965369
4
 1 0.327268 0.327268 0.961798
4
 1 0.300726 0.300726 0.981765
4
 1 0.304567 0.304567 0.977365
4
 1 0.302133 0.302133 0.985189
4
 1 0.299663 0.299663 0.986074
4
 1 0.293168 0.293168 0.981598
4
 1 0.293162 0.293162 0.984302
4
 1 0.291916 0.291916 0.980826
4
 1 0.289496 0.289496 0.983749
4
 1 0.287559 0.287559 0.989177
4
 1 0.287544 0.287544 0.99168
4
 1 0.289767 0.289767 0.990178
4
 1 0.295798 0.295798 0.979946
4
 1 0.297873 0.297873 0.973638
4
 1 0.29454 0.29454 0.976485
4
 1 0.297387 0.297387 0.982371
4
 1 0.302809 0.302809 0.977694
4
 1 0.30126 0.30126 0.976815
4
 1 0.297934 0.297934 0.986406
4
 1 0.295426 0.295426 0.988457
4
 1 0.297866 0.297866 0.976321
4
 1 0.299644 0.299644 0.977089
4
 1 0.292366 0.292366 0.988512
4
 1 0.293841 0.293841 0.988735
4
 1 0.308849 0.308849 0.967482
4
 1 0.305108 0.305108 0.972438
4
 1 0.311237 0.311237 0.966017
4
 1 0.308806 0.308806 0.972166
4
 1 0.302044 0.302044 0.966231
4
 1 0.301746 0.301746 0.9708
4
 1 0.2966 0.2966 0.972873
4
 1 0.299605 0.299605 0.967751
4
 1 0.305912 0.305912 0.962117
4
 1 0.309357 0.309357 0.96174
4
 1 0.30561 0.30561 0.966666
4
 1 0.30169 0.30169 0.963955
4
 1 0.307268 0.307268 0.966613
4
 1 0.313441 0.313441 0.96023
4
 1 0.292758 0.292758 0.969273
4
 1 0.289642 0.289642 0.975826
4
 1 0.288169 0.288169 0.975168
4
 1 0.288954 0.288954 0.971015
4
 1 0.296252 0.296252 0.970581
4
 1 0.29398 0.29398 0.972053
4
 1 0.29085 0.29085 0.978625
4
 1 0.296957 0.296957 0.966936
4
 1 0.291542 0.291542 0.97495
4
 1 0.285169 0.285169 0.986237
4
 1 0.286509 0.286509 0.986958
4
 1 0.286972 0.286972 0.98088
4
 0.967773 0.301235 0.301235 1
4
 0.962354 0.297798 0.297798 1
4
 0.962785 0.300406 0.300406 1
4
 0.96674 0.303606 0.303606 1
4
 0.970929 0.306388 0.306388 1
4
 0.972839 0.306265 0.306265 1
4
 0.962624 0.296507 0.296507 1
4
 0.972676 0.302794 0.302794 1
4
 0.967719 0.298098 0.298098 1
4
 0.962192 0.294423 0.294423 1
4
 0.973113 0.304937 0.304937 1
4
 0.952676 0.289867 0.289867 1
4
 0.953264 0.291839 0.291839 1
4
 0.957663 0.295691 0.295691 1
4
 0.951767 0.287585 0.287585 1
4
 0.956804 0.291063 0.291063 1
4
 0.948725 0.288596 0.288596 1
4
 0.947236 0.28439 0.28439 1
4
 0.953692 0.294395 0.294395 1
4
 0.950164 0.292729 0.292729 1
4
 0.962029 0.301458 0.301458 1
4
 0.954549 0.296593 0.296593 1
4
 0.95734 0.299824 0.299824 1
4
 0.967826 0.307466 0.307466 1
4
 0.972238 0.310343 0.310343 1
4
 0.970166 0.307461 0.307461 1
4
 0.953798 0.298128 0.298128 1
4
 0.949961 0.250219 0.250219 1
4
 0.954774 0.253197 0.253197 1
4
 0.951509 0.253193 0.253193 1
4
 0.955793 0.256724 0.256724 1
4
 0.959342 0.256897 0.256897 1
4
 0.960204 0.259247 0.259247 1
4
 0.949962 0.248971 0.248971 1
4
 0.949482 0.247518 0.247518 1
4
 0.944431 0.244039 0.244039 1
4
 0.94062 0.243196 0.243196 1
4
 0.9393 0.241189 0.241189 1
4
 0.946713 0.248967 0.248967 1
4
 0.954292 0.250464 0.250464 1
4
 0.959342 0.255615 0.255615 1
4
 0.958051 0.252779 0.252779 1
4
 0.948736 0.245503 0.245503 1
4
 0.953008 0.247272 0.247272 1
4
 0.957567 0.251304 0.251304 1
4
 0.947938 0.243797 0.243797 1
4
 0.942366 0.239655 0.239655 1
4
 0.938563 0.239225 0.239225 1
4
 0.938405 0.238096 0.238096 1
4
 0.950443 0.243433 0.243433 1
4
 0.944856 0.239298 0.239298 1
4
 0.953276 0.244156 0.244156 1
4
 0.946609 0.241382 0.241382 1
4
 0.955044 0.246283 0.246283 1
4
 0.956761 0.249558 0.249558 1
4
 0.93588 0.23401 0.23401 1
4
 0.937089 0.235738 0.235738 1
4
 1 0.278916 0.278916 0.988564
4
 1 0.281402 0.281402 0.989398
4
 1 0.277817 0.277817 0.992959
4
 1 0.281069 0.281069 0.984134
4
 1 0.283182 0.283182 0.984024
4
 1 0.275885 0.275885 0.993684
4
 1 0.279114 0.279114 0.984852
4
 1 0.278344 0.278344 0.994522
4
 1 0.283261 0.283261 0.991679
4
 1 0.279908 0.279908 0.995808
4
 1 0.283718 0.283718 0.985572
4
 0.997859 0.272545 0.272545 1
4
 1 0.276342 0.276342 0.999392
4
 1 0.284578 0.284578 0.994915
4
 1 0.28166 0.28166 0.998608
4
 1 0.281224 0.281224 0.996535
4
 0.991937 0.270032 0.270032 1
4
 0.989823 0.267079 0.267079 1
4
 0.996571 0.273723 0.273723 1
4
 0.998866 0.281326 0.281326 1
4
 1 0.286762 0.286762 0.995921
4
 0.999034 0.283603 0.283603 1
4
 0.987935 0.26731 0.26731 1
4
 0.992605 0.273815 0.273815 1
4
 0.99467 0.27396 0.27396 1
4
 0.985386 0.267387 0.267387 1
4
 0.988434 0.270678 0.270678 1
4
 0.983286 0.264463 0.264463 1
4
 0.98086 0.261277 0.261277 1
4
 0.997242 0.277558 0.277558 1
4
 0.99099 0.274233 0.274233 1
4
 0.995339 0.279658 0.279658 1
4
 1 0.327386 0.327386 0.998339
4
 0.995608 0.324064 0.324064 1
4
 0.998464 0.320421 0.320421 1
4
 0.996224 0.320339 0.320339 1
4
 0.993654 0.319898 0.319898 1
4
 0.993653 0.321502 0.321502 1
4
 1 0.326868 0.326868 0.996043
4
 1 0.324095 0.324095 0.997665
4
 0.998182 0.327773 0.327773 1
4
 1 0.329757 0.329757 0.993474
4
 1 0.332857 0.332857 0.989021
4
 1 0.33156 0.33156 0.996603
4
 1 0.333962 0.333962 0.991746
4
 0.990199 0.321348 0.321348 1
4
 0.985318 0.319991 0.319991 1
4
 0.997342 0.328768 0.328768 1
4
 0.989198 0.324028 0.324028 1
4
 0.993094 0.326478 0.326478 1
4
 0.987368 0.32016 0.32016 1
4
 1 0.344521 0.344521 0.979406
4
 1 0.3395 0.3395 0.990189
4
 1 0.340008 0.340008 0.986139
4
 1 0.344062 0.344062 0.976002
4
 1 0.347218 0.347218 0.970101
4
 0.937768 0.256071 0.256071 1
4
 0.934771 0.255264 0.255264 1
4
 0.954234 0.268506 0.268506 1
4
 0.945965 0.262215 0.262215 1
4
 0.953163 0.269144 0.269144 1
4
 0.948305 0.265855 0.265855 1
4
 0.957454 0.272443 0.272443 1
4
 0.961118 0.271971 0.271971 1
4
 0.961819 0.274534 0.274534 1
4
 0.938979 0.258393 0.258393 1
4
 0.94432 0.262808 0.262808 1
4
 0.953911 0.274997 0.274997 1
4
 0.957292 0.275257 0.275257 1
4
 0.952413 0.271893 0.271893 1
4
 0.96398 0.281558 0.281558 1
4
 0.963222 0.282544 0.282544 1
4
 0.963656 0.279839 0.279839 1
4
 0.959282 0.280032 0.280032 1
4
 0.940085 0.266645 0.266645 1
4
 0.945326 0.270498 0.270498 1
4
 0.946228 0.273099 0.273099 1
4
 0.941247 0.269836 0.269836 1
4
 0.944371 0.268692 0.268692 1
4
 0.938662 0.263319 0.263319 1
4
 0.943894 0.267124 0.267124 1
4
 0.948144 0.269498 0.269498 1
4
 0.950542 0.275195 0.275195 1
4
 0.954982 0.277565 0.277565 1
4
 0.937083 0.259672 0.259672 1
4
 0.941302 0.26198 0.26198 1
4
 0.951505 0.269753 0.269753 1
4
 0.962737 0.277636 0.277636 1
4
 0.960739 0.275186 0.275186 1
4
 0.942412 0.264109 0.264109 1
4
 0.967336 0.30926 0.30926 1
4
 0.973056 0.313558 0.313558 1
4
 0.974095 0.313191 0.313191 1
4
 0.963109 0.3058 0.3058 1
4
 0.960786 0.304787 0.304787 1
4
 0.98765 0.299702 0.299702 1
4
 0.99204 0.304755 0.304755 1
4
 0.991705 0.306451 0.306451 1
4
 0.984935 0.299371 0.299371 1
4
 0.991539 0.302473 0.302473 1
4
 0.984438 0.297129 0.297129 1
4
 0.990372 0.29804 0.29804 1
4
 0.99154 0.300964 0.300964 1
4
 0.985656 0.29522 0.29522 1
4
 1 0.350674 0.350674 0.952718
4
 1 0.355421 0.355421 0.947916
4
 1 0.354524 0.354524 0.953254
4
 1 0.357619 0.357619 0.947331
4
 1 0.34947 0.34947 0.957545
4
 1 0.350155 0.350155 0.959483
4
 1 0.351441 0.351441 0.947862
4
 1 0.356198 0.356198 0.943084
4
 1 0.349808 0.349808 0.947382
4
 1 0.351811 0.351811 0.943825
4
 1 0.353481 0.353481 0.947543
4
 1 0.347561 0.347561 0.957168
4
 1 0.345686 0.345686 0.957222
4
 1 0.34465 0.34465 0.953894
4
 1 0.347139 0.347139 0.951861
4
 1 0.36048 0.36048 0.942185
4
 1 0.359571 0.359571 0.947491
4
 1 0.352066 0.352066 0.959645
4
 0.995611 0.309283 0.309283 1
4
 1 0.310904 0.310904 0.998559
4
 1 0.312365 0.312365 0.999289
4
 0.995947 0.306038 0.306038 1
4
 0.996561 0.313823 0.313823 1
4
 0.993432 0.312979 0.312979 1
4
 0.995609 0.316587 0.316587 1
4
 1 0.319357 0.319357 0.996712
4
 1 0.320497 0.320497 0.998281
4
 0.99215 0.310167 0.310167 1
4
 1 0.316897 0.316897 0.998
4
 0.988481 0.303819 0.303819 1
4
 1 0.314209 0.314209 0.999626
4
 0.979365 0.298294 0.298294 1
4
 0.974702 0.294488 0.294488 1
4
 0.97909 0.295623 0.295623 1
4
 0.973116 0.290061 0.290061 1
4
 0.972351 0.291076 0.291076 1
4
 0.979694 0.301631 0.301631 1
4
 0.975029 0.297783 0.297783 1
4
 0.977221 0.303372 0.303372 1
4
 0.983055 0.305176 0.305176 1
4
 0.980244 0.304556 0.304556 1
4
 0.972568 0.297015 0.297015 1
4
 0.977606 0.298332 0.298332 1
4
 0.985653 0.305739 0.305739 1
4
 0.982008 0.299482 0.299482 1
4
 0.970605 0.291114 0.291114 1
4
 0.970496 0.293767 0.293767 1
4
 0.976353 0.261772 0.261772 1
4
 0.973945 0.258619 0.258619 1
4
 0.973725 0.261605 0.261605 1
4
 0.968491 0.256522 0.256522 1
4
 0.968981 0.255459 0.255459 1
4
 0.983782 0.267795 0.267795 1
4
 0.978329 0.261353 0.261353 1
4
 0.978109 0.26437 0.26437 1
4
 0.981134 0.267623 0.267623 1
4
 0.986825 0.27245 0.27245 1
4
 0.970942 0.255049 0.255049 1
4
 0.976352 0.266173 0.266173 1
4
 0.981134 0.268965 0.268965 1
4
 0.972413 0.263051 0.263051 1
4
 0.970232 0.259067 0.259067 1
4
 0.982015 0.270973 0.270973 1
4
 0.980527 0.271639 0.271639 1
4
 0.973287 0.265015 0.265015 1
4
 0.976242 0.269496 0.269496 1
4
 0.985329 0.274488 0.274488 1
4
 0.991156 0.277839 0.277839 1
4
 0.979536 0.272992 0.272992 1
4
 0.983946 0.276799 0.276799 1
4
 0.988542 0.279183 0.279183 1
4
 0.989654 0.278522 0.278522 1
4
 0.982778 0.310621 0.310621 1
4
 0.980353 0.306879 0.306879 1
4
 0.972677 0.299281 0.299281 1
4
 0.972349 0.300946 0.300946 1
4
 0.977769 0.30785 0.30785 1
4
 0.991203 0.312899 0.312899 1
4
 0.986206 0.308704 0.308704 1
4
 0.985377 0.303002 0.303002 1
4
 0.990812 0.31607 0.31607 1
4
 0.988368 0.312263 0.312263 1
4
 0.988256 0.317218 0.317218 1
4
 0.985818 0.311833 0.311833 1
4
 0.983219 0.312819 0.312819 1
4
 0.985429 0.31763 0.31763 1
4
 0.983219 0.314388 0.314388 1
4
 0.977492 0.316492 0.316492 1
4
 0.981342 0.320484 0.320484 1
4
 0.98239 0.320109 0.320109 1
4
 0.976451 0.313186 0.313186 1
4
 0.980571 0.316289 0.316289 1
4
 0.972303 0.266336 0.266336 1
4
 0.967186 0.25794 0.25794 1
4
 0.966642 0.260625 0.260625 1
4
 0.965341 0.257734 0.257734 1
4
 0.979646 0.274616 0.274616 1
4
 0.970556 0.269048 0.269048 1
4
 0.975747 0.273338 0.273338 1
4
 0.969577 0.265032 0.265032 1
4
 0.970448 0.267457 0.267457 1
4
 1 0.328974 0.328974 0.988576
4
 1 0.326443 0.326443 0.992804
4
 1 0.332331 0.332331 0.986746
4
 1 0.325024 0.325024 0.988631
4
 1 0.326183 0.326183 0.990187
4
 1 0.332067 0.332067 0.984145
4
 1 0.329785 0.329785 0.982599
4
 1 0.322523 0.322523 0.992858
4
 1 0.31865 0.31865 0.992913
4
 1 0.320738 0.320738 0.989074
4
 1 0.326084 0.326084 0.98525
4
 1 0.323795 0.323795 0.985526
4
 1 0.338431 0.338431 0.98001
4
 1 0.344566 0.344566 0.971791
4
 1 0.341419 0.341419 0.974578
4
 1 0.339555 0.339555 0.982711
4
 1 0.336337 0.336337 0.977482
4
 1 0.338417 0.338417 0.976878
4
 1 0.336569 0.336569 0.985031
4
 1 0.333151 0.333151 0.98078
4
 0.978542 0.290838 0.290838 1
4
 0.975743 0.291216 0.291216 1
4
 0.973884 0.280503 0.280503 1
4
 0.976732 0.280737 0.280737 1
4
 0.970827 0.276964 0.276964 1
4
 0.96865 0.27277 0.27277 1
4
 0.968051 0.274107 0.274107 1
4
 0.96914 0.271639 0.271639 1
4
 0.976404 0.279023 0.279023 1
4
 0.974323 0.275971 0.275971 1
4
 0.978982 0.287095 0.287095 1
4
 0.978213 0.285232 0.285232 1
4
 0.979752 0.28897 0.28897 1
4
 0.972571 0.285365 0.285365 1
4
 0.972299 0.2814 0.2814 1
4
 0.972244 0.283623 0.283623 1
4
 1 0.29957 0.29957 0.995421
4
 1 0.300158 0.300158 0.997436
4
 0.996566 0.293577 0.293577 1
4
 1 0.296751 0.296751 0.999229
4
 1 0.300736 0.300736 0.99923
4
 0.993325 0.292028 0.292028 1
4
 0.994162 0.294563 0.294563 1
4
 1 0.302387 0.302387 0.99096
4
 1 0.298955 0.298955 0.992742
4
 1 0.299329 0.299329 0.989847
4
 1 0.303564 0.303564 0.994752
4
 0.999256 0.293765 0.293765 1
4
 0.989707 0.285708 0.285708 1
4
 0.991821 0.288867 0.288867 1
4
 0.995001 0.288816 0.288816 1
4
 1 0.296512 0.296512 0.993633
4
 0.9992 0.292164 0.292164 1
4
 0.984221 0.279766 0.279766 1
4
 0.986489 0.2842 0.2842 1
4
 0.989652 0.28415 0.28415 1
4
 0.982399 0.281543 0.281543 1
4
 0.980305 0.278464 0.278464 1
4
 0.988653 0.280844 0.280844 1
4
 0.989486 0.282809 0.282809 1
4
 0.98014 0.27715 0.27715 1
4
 1 0.309502 0.309502 0.993246
4
 1 0.312257 0.312257 0.991129
4
 1 0.307812 0.307812 0.992855
4
 1 0.314181 0.314181 0.984639
4
 1 0.311409 0.311409 0.986742
4
 1 0.310235 0.310235 0.9952
4
 1 0.305819 0.305819 0.996933
4
 0.998132 0.303434 0.303434 1
4
 0.999309 0.306411 0.306411 1
4
 1 0.314469 0.314469 0.993805
4
 1 0.314926 0.314926 0.986576
4
 1 0.316546 0.316546 0.987464
4
 1 0.316529 0.316529 0.989962
4
 1 0.309352 0.309352 0.998559
4
 1 0.307703 0.307703 0.990405
4
 0.998525 0.301896 0.301896 1
4
 0.996844 0.298709 0.298709 1
4
 1 0.318017 0.318017 0.990685
4
 1 0.320027 0.320027 0.976765
4
 1 0.321673 0.321673 0.977643
4
 1 0.325982 0.325982 0.968954
4
 1 0.325607 0.325607 0.972442
4
 1 0.318496 0.318496 0.980997
4
 1 0.314069 0.314069 0.982209
4
 1 0.320117 0.320117 0.984364
4
 1 0.324049 0.324049 0.976656
4
 1 0.323168 0.323168 0.980833
4
 1 0.323151 0.323151 0.983315
4
 0.991931 0.295471 0.295471 1
4
 0.994775 0.301553 0.301553 1
4
 0.988095 0.293879 0.293879 1
4
 0.988872 0.295798 0.295798 1
4
 0.989428 0.289836 0.289836 1
4
 0.984497 0.284656 0.284656 1
4
 0.986432 0.290777 0.290777 1
4
 0.985657 0.28889 0.28889 1
4
 1 0.347046 0.347046 0.963965
4
 1 0.343877 0.343877 0.966729
4
 1 0.344498 0.344498 0.962071
4
 1 0.344551 0.344551 0.968685
4
 1 0.339306 0.339306 0.972063
4
 1 0.339919 0.339919 0.96738
4
 1 0.334026 0.334026 0.975945
4
 1 0.338223 0.338223 0.967379
4
 1 0.335369 0.335369 0.972062
4
 1 0.342021 0.342021 0.966783
4
 1 0.34093 0.34093 0.962125
4
 0.930324 0.236537 0.236537 1
4
 0.928341 0.236302 0.236302 1
4
 0.925063 0.23451 0.23451 1
4
 0.92902 0.234585 0.234585 1
4
 0.923973 0.231073 0.231073 1
4
 0.934093 0.240144 0.240144 1
4
 0.934776 0.238398 0.238398 1
4
 0.92881 0.238085 0.238085 1
4
 0.931947 0.232488 0.232488 1
4
 0.925896 0.228132 0.228132 1
4
 0.933308 0.235315 0.235315 1
4
 0.928394 0.232891 0.232891 1
4
 0.928238 0.231792 0.231792 1
4
 0.927093 0.229817 0.229817 1
4
 0.922212 0.227449 0.227449 1
4
 1 0.337975 0.337975 0.956897
4
 1 0.332058 0.332058 0.961421
4
 1 0.333268 0.333268 0.957864
4
 1 0.336984 0.336984 0.954
4
 1 0.33446 0.33446 0.962232
4
 1 0.331677 0.331677 0.964882
4
 1 0.33959 0.33959 0.952555
4
 1 0.339908 0.339908 0.958781
4
 1 0.337046 0.337046 0.960774
4
 1 0.343048 0.343048 0.953412
4
 1 0.342355 0.342355 0.951059
4
 1 0.329965 0.329965 0.960935
4
 1 0.328389 0.328389 0.967975
4
 1 0.332372 0.332372 0.953838
4
 1 0.336079 0.336079 0.94999
4
 1 0.334859 0.334859 0.953517
4
 1 0.341351 0.341351 0.948179
4
 0.981846 0.287334 0.287334 1
4
 0.98339 0.291099 0.291099 1
4
 0.980744 0.283727 0.283727 1
4
 1 0.334757 0.334757 0.99666
4
 0.999078 0.33354 0.33354 1
4
 1 0.337182 0.337182 0.991803
4
 0.998294 0.331376 0.331376 1
4
 1 0.335258 0.335258 0.992583
4
 0.990143 0.326599 0.326599 1
4
 0.969027 0.286737 0.286737 1
4
 0.969463 0.283992 0.283992 1
4
 0.964304 0.285183 0.285183 1
4
 0.968156 0.290363 0.290363 1
4
 0.969192 0.280045 0.280045 1
4
 0.966475 0.274983 0.274983 1
4
 0.967181 0.277574 0.277574 1
4
 0.967126 0.279767 0.279767 1
4
 0.952524 0.255439 0.255439 1
4
 0.948042 0.253563 0.253563 1
4
 0.956167 0.260584 0.260584 1
4
 0.951668 0.25867 0.25867 1
4
 0.960202 0.265812 0.265812 1
4
 0.960688 0.26471 0.26471 1
4
 0.95231 0.257099 0.257099 1
4
 0.961336 0.263103 0.263103 1
4
 0.961228 0.261547 0.261547 1
4
 1 0.315976 0.315976 0.961147
4
 1 0.313508 0.313508 0.967266
4
 1 0.313397 0.313397 0.964878
4
 1 0.283383 0.283383 0.980328
4
 1 0.282399 0.282399 0.976537
4
 1 0.284155 0.284155 0.976153
4
 1 0.28629 0.28629 0.976044
4
 1 0.285297 0.285297 0.972269
4
 0.948462 0.277095 0.277095 1
4
 0.952036 0.280666 0.280666 1
4
 0.943469 0.273783 0.273783 1
4
 0.951983 0.281943 0.281943 1
4
 0.945908 0.277842 0.277842 1
4
 0.955894 0.280235 0.280235 1
4
 0.955035 0.281423 0.281423 1
4
 0.94644 0.274521 0.274521 1
4
 0.959497 0.283847 0.283847 1
4
 0.964195 0.287782 0.287782 1
4
 0.963329 0.289003 0.289003 1
4
 0.95858 0.286347 0.286347 1
4
 0.963275 0.290317 0.290317 1
4
 0.96772 0.29464 0.29464 1
4
 0.96295 0.291932 0.291932 1
4
 0.95241 0.283465 0.283465 1
4
 0.95745 0.288332 0.288332 1
4
 0.946332 0.280743 0.280743 1
4
 0.95134 0.285563 0.285563 1
4
 0.961868 0.292625 0.292625 1
4
 0.951341 0.284139 0.284139 1
4
 0.965505 0.252981 0.252981 1
4
 0.961447 0.250499 0.250499 1
4
 0.963176 0.25383 0.25383 1
4
 0.961934 0.249462 0.249462 1
4
 0.959613 0.250299 0.250299 1
4
 0.978482 0.313352 0.313352 1
4
 0.976287 0.310153 0.310153 1
4
 0.980407 0.313226 0.313226 1
4
 1 0.294382 0.294382 0.992796
4
 1 0.292763 0.292763 0.997882
4
 0.999426 0.28691 0.28691 1
4
 1 0.290438 0.290438 0.994637
4
 1 0.286073 0.286073 0.999451
4
 0.999201 0.288293 0.288293 1
4
 0.994388 0.282592 0.282592 1
4
 0.994108 0.285245 0.285245 1
4
 1 0.290298 0.290298 0.999957
4
 0.964308 0.270818 0.270818 1
4
 0.965392 0.26838 0.26838 1
4
 0.964415 0.27471 0.27471 1
4
 0.971046 0.271531 0.271531 1
4
 0.965772 0.265688 0.265688 1
4
 1 0.332191 0.332191 0.975342
4
 1 0.328538 0.328538 0.979513
4
 1 0.336366 0.336366 0.966782
4
 1 0.336373 0.336373 0.964125
4
 1 0.333534 0.333534 0.968792
4
 1 0.329859 0.329859 0.975616
4
 1 0.330765 0.330765 0.968791
4
 1 0.329866 0.329866 0.972935
4
 1 0.32712 0.32712 0.975615
4
 0.978325 0.278911 0.278911 1
4
 1 0.344828 0.344828 0.949032
4
 1 0.347505 0.347505 0.947808
4
 1 0.346803 0.346803 0.945468
4
 0.962634 0.256473 0.256473 1
4
 0.964798 0.261723 0.261723 1
1
 1

